10	5
0	3	5	1	2
1	1	9
2	1	8
3	1	10
4	1	11
5	2	8	7
6	1	3
7	1	4
8	1	6
9	0
10	1	11
11	0
0	0	0	0	0	0	0
1	5	0	0	0	0	4
2	4	1	4	1	5	0
3	1	0	0	0	5	0
4	10	0	4	0	0	0
5	9	5	0	4	0	0
6	1	1	1	0	5	3
7	10	0	3	0	0	4
8	6	5	0	1	4	2
9	6	0	0	0	2	4
10	9	5	0	2	4	1
11	0	0	0	0	0	0
6	4	4	7	5
